proyfinal/src/viki/013/experimentInOfficeAgust.take6.output/044c97f1-f8c5-441f-9d1a-174cb5e5186f.als.out
Reading from standard input... Use '--help' for help.
============================[ Problem Statistics ]=============================
|                                                                             |
|  Number of variables:         87638                                         |
|  Number of clauses:          161767                                         |
|  Parse time:                   0.04 s                                       |
|                                                                             |
============================[ Search Statistics ]==============================
| Conflicts |          ORIGINAL         |          LEARNT          | Progress |
|           |    Vars  Clauses Literals |    Limit  Clauses Lit/Cl |          |
===============================================================================
|       100 |   62148   104509   260642 |    38319      100     20 | 29.086 % |
|       250 |   62148   104509   260642 |    42151      250     33 | 29.086 % |
|       475 |   62148   104509   260642 |    46367      475     34 | 29.086 % |
|       812 |   62147   104465   260552 |    51003      809     48 | 29.087 % |
|      1318 |   62147   104465   260552 |    56104     1315     61 | 29.087 % |
|      2077 |   62147   104465   260552 |    61714     2074     64 | 29.087 % |
|      3216 |   62147   104465   260552 |    67886     3213     87 | 29.087 % |
|      4924 |   62147   104465   260552 |    74674     4921     89 | 29.087 % |
|      7486 |   62114   104331   260238 |    82142     6373     85 | 29.124 % |
|     11330 |   61957   103665   258670 |    90356     9526     80 | 29.304 % |
|     17096 |   61904   103376   258040 |    99392    14221     80 | 29.364 % |
===============================================================================
restarts              : 70
conflicts             : 20130          (7254 /sec)
decisions             : 54395          (0.00 % random) (19602 /sec)
propagations          : 27331222       (9849274 /sec)
conflict literals     : 1585005        (54.53 % deleted)
Memory used           : 35.45 MB
CPU time              : 2.77495 s

UNSATISFIABLE
